files/upTests/__reps/ExplicitVarSizeWithDefault/smallerNested2/0001.eprime.solution
language ESSENCE' 1.0
$ minion Nodes: 8
$ minion TotalTime: 0.001673
$ Savile Row TotalTime: 0.322
letting s_Explicit_Explicit_ExplicitVarSizeWithDefault be [[[0, 1, 2;int(1..3)];int(1..1)], 
[[0, 1, 3;int(1..3)];int(1..1)];int(1..2)]
